52 61 147 20 81 46 95 38 121 151 150 94 141 103 131 128 194 171 8 132 48 22 90 1 176 50 172 65 76 43 42 59 162 154 18 180 138 184 110 107 109 197 45 66 97 26 199 96 198 169 83 85 115 135 34 144 101 195 182 75 165 49 102 53 186 99 70 40 117 11 160 174 177 5 118 47 25 28 6 73 10 137 133 187 78 125 148 120 21 161 134 32 167 37 39 63 88 31 111 124 41 130 140 104 170 93 33 91 54 72 193 27 86 0 44 155 79 35 163 139 36 92 159 58 181 196 51 112 80 164 7 129 62 23 122 89 69 190 56 30 152 77 14 106 149 143 55 60 136 116 146 119 16 179 87 173 74 82 24 113 13 142 156 17 12 57 158 175 192 127 98 166 188 67 168 145 126 100 183 29 153 68 178 189 185 15 123 19 114 191 71 2 84 64 3 4 157 9 105 108